65 83 57 86 87 59 97 58 74 
64 51 85 63 76 89 84 56 91 
82 99 52 75 77 21 23 19 18 49 20 22 48 25 24 66 
70 100 2 45 5 8 7 79 73 78 60 
95 67 62 33 30 31 29 27 28 26 32 34 50 92 80 
81 68 55 88 6 46 4 3 1 43 36 35 37 54 
69 98 53 12 14 47 17 16 15 13 9 11 10 90 
61 39 38 40 44 42 41 72 71 93 94 96 
